292	52	4	141	
14	12	11	13

0	0	0	0	0	0	4	1	2	3	4
1	0	2	0	0	7	3	6	9	21
2	0	0	3	0	9	3	43	44	49
3	4	0	0	0	9	2	5	35
4	0	4	0	0	5	3	7	17	23
5	0	0	0	7	4	2	6	9
6	0	0	1	0	9	1	8
7	0	0	9	0	6	3	18	31	34
8	0	8	0	0	2	1	10
9	0	0	0	5	7	3	12	13	36
10	0	0	1	0	7	1	11
11	0	2	0	0	4	3	12	13	36
12	0	9	0	0	3	2	15	16
13	0	0	0	3	2	2	14	15
14	0	5	0	0	8	1	16
15	5	0	0	0	6	2	17	23
16	0	0	9	0	8	2	17	23
17	0	0	0	6	3	1	19
18	7	0	0	0	10	1	21
19	6	0	0	0	3	1	20
20	0	0	8	0	5	3	24	33	37
21	0	0	0	7	10	1	22
22	0	0	1	0	1	1	25
23	0	9	0	0	1	3	24	33	37
24	0	3	0	0	10	2	26	34
25	2	0	0	0	7	2	27	38
26	0	1	0	0	7	2	28	41
27	0	0	4	0	6	2	32	49
28	0	7	0	0	10	1	29
29	0	0	0	7	2	2	30	43
30	1	0	0	0	3	1	31
31	0	0	0	10	1	3	39	46	49
32	0	0	0	10	10	2	35	41
33	4	0	0	0	2	2	34	40
34	0	0	5	0	6	3	38	44	49
35	0	0	4	0	3	2	36	43
36	0	0	0	4	7	2	37	46
37	0	1	0	0	3	1	39
38	7	0	0	0	5	2	41	45
39	7	0	0	0	7	1	40
40	4	0	0	0	6	1	42
41	0	0	10	0	7	1	43
42	1	0	0	0	5	1	44
43	0	7	0	0	9	1	46
44	3	0	0	0	5	1	45
45	0	0	9	0	6	2	47	48
46	0	0	0	9	10	2	47	48
47	0	0	7	0	4	1	50
48	6	0	0	0	7	1	51
49	10	0	0	0	5	1	51
50	0	0	6	0	10	1	51
51	0	0	0	0	0	0
